NAME : XML100_3364_25
DIMENSION : 101
NB_CLUSTERS : 3
CLUSTERING_ALG : DBSCAN
CLUSTERING_PARAMS : eps(155), minSamples(3)
CLUSTERS
1 0
2 1 2 4 5 8 10 11 12 13 15 16 18 22 23 24 28 29 32 34 35 36 37 39 40 41 42 43 44 45 51 52 53 55 56 58 60 61 63 68 72 74 75 76 77 78 79 81 82 85 86 90 92 93 95 96 97 98 99 100
3 3 6 7 9 14 17 19 20 21 25 26 27 30 31 33 38 46 47 48 49 50 54 57 59 62 64 65 66 67 69 70 71 73 80 83 84 87 88 89 91 94
EOF